163
204 656 703 716 771 783 804 807 820 826 844 863 930 953 988 993 1022 1032 1063 1069 1076 1079 1083 1097 1110 1158 1162 1169 1178 1181 1189 1199 1201 1212 1218 1228 1235 1250 1281 1284 1290 1294 1295 1299 1305 1317 1318 1328 1341 1346 1347 1350 1364 1367 1371 1374 1381 1382 1391 1395 1403 1413 1417 1418 1423 1432 1433 1444 1457 1475 1491 1496 1510 1524 1526 1537 1545 1550 1553 1555 1560 1567 1579 1585 1592 1597 1607 1613 1621 1624 1629 1632 1634 1635 1636 1640 1641 1650 1658 1659 1669 1687 1690 1700 1702 1717 1721 1725 1738 1741 1760 1775 1780 1781 1784 1797 1799 1802 1808 1810 1813 1814 1823 1830 1834 1840 1843 1844 1847 1848 1852 1861 1862 1867 1870 1872 1873 1876 1877 1882 1888 1891 1893 1900 1901 1905 1908 1910 1912 1913 1917 1920 1922 1931 1934 1940 1943 1945 1955 1956 1980 1984 1999
